SECTION Graph
Nodes 370
Edges 721
E 1 6 7
E 1 341 1
E 1 342 1
E 1 343 6
E 2 343 5
E 3 341 6
E 3 343 1
E 4 342 6
E 4 343 1
E 5 10 7
E 5 336 1
E 5 337 1
E 5 338 5
E 6 338 6
E 6 339 1
E 6 340 1
E 7 336 5
E 7 338 1
E 7 339 6
E 8 337 5
E 8 338 1
E 8 340 6
E 9 14 7
E 9 331 1
E 9 332 1
E 9 333 6
E 10 333 5
E 10 334 1
E 10 335 1
E 11 331 6
E 11 333 1
E 11 334 5
E 12 332 6
E 12 333 1
E 12 335 5
E 13 18 7
E 13 326 1
E 13 327 1
E 13 328 5
E 14 328 6
E 14 329 1
E 14 330 1
E 15 326 5
E 15 328 1
E 15 329 6
E 16 327 5
E 16 328 1
E 16 330 6
E 17 22 7
E 17 318 1
E 17 320 1
E 17 321 1
E 18 323 5
E 18 324 1
E 18 325 1
E 19 319 5
E 19 323 1
E 19 324 5
E 20 322 5
E 20 323 1
E 20 325 5
E 21 26 7
E 21 313 1
E 21 314 1
E 21 315 5
E 22 315 6
E 22 316 1
E 22 317 1
E 23 313 5
E 23 315 1
E 23 316 6
E 24 314 5
E 24 315 1
E 24 317 6
E 25 296 6
E 25 303 1
E 25 305 1
E 25 307 6
E 26 307 5
E 26 311 1
E 26 312 1
E 27 303 6
E 27 307 1
E 27 311 5
E 28 305 6
E 28 307 1
E 28 312 5
E 29 281 4
E 29 283 2
E 29 290 5
E 29 300 10
E 30 298 4
E 30 300 2
E 31 213 4
E 31 224 2
E 31 245 5
E 31 265 10
E 32 250 6
E 32 265 2
E 32 282 5
E 33 154 1
E 33 160 2
E 33 200 10
E 34 36 3
E 34 192 2
E 34 215 1
E 35 154 3
E 35 181 10
E 36 181 2
E 37 38 1
E 37 58 4
E 37 299 1
E 37 302 2
E 38 56 4
E 38 304 2
E 39 297 16
E 39 310 1
E 40 283 5
E 40 284 4
E 40 290 2
E 40 295 4
E 41 42 10
E 41 290 4
E 41 295 2
E 41 301 2
E 42 306 4
E 42 308 2
E 43 44 1
E 43 249 4
E 43 255 3
E 43 270 2
E 44 254 4
E 44 269 1
E 44 272 2
E 45 274 10
E 45 288 1
E 45 291 1
E 45 294 2
E 46 163 16
E 46 224 5
E 46 245 2
E 46 255 4
E 47 48 10
E 47 245 4
E 47 255 2
E 47 270 3
E 48 279 4
E 48 285 2
E 48 286 3
E 49 50 1
E 49 156 5
E 49 174 1
E 49 188 2
E 50 159 5
E 50 187 1
E 50 191 2
E 51 199 10
E 51 241 1
E 51 250 2
E 51 265 6
E 52 144 5
E 52 157 1
E 52 160 2
E 53 64 5
E 53 157 1
E 53 165 1
E 53 169 2
E 54 175 10
E 54 225 1
E 54 235 2
E 54 238 3
E 55 266 3
E 55 271 1
E 55 276 1
E 55 277 1
E 56 58 1
E 56 277 12
E 56 297 1
E 57 58 12
E 57 59 1
E 57 271 1
E 57 277 1
E 58 60 1
E 59 60 12
E 59 267 2
E 59 268 1
E 60 287 2
E 60 299 4
E 61 118 3
E 61 121 1
E 61 144 12
E 62 64 12
E 62 71 3
E 62 121 1
E 62 125 1
E 63 64 1
E 63 121 12
E 63 144 1
E 63 157 5
E 64 151 1
E 65 229 1
E 65 251 6
E 66 251 9
E 66 275 1
E 67 229 6
E 67 236 4
E 67 251 1
E 67 275 9
E 68 251 4
E 69 82 1
E 69 110 1
E 69 112 6
E 70 83 1
E 70 111 1
E 70 115 6
E 71 72 1
E 71 95 8
E 71 119 1
E 72 79 2
E 72 96 8
E 72 125 3
E 73 74 1
E 73 98 8
E 73 124 1
E 73 132 3
E 74 99 8
E 74 131 2
E 74 135 3
E 75 77 6
E 75 84 1
E 75 91 1
E 76 85 1
E 76 114 6
E 76 117 2
E 76 120 4
E 77 82 1
E 78 83 1
E 78 92 6
E 78 110 2
E 79 116 8
E 79 124 1
E 79 126 3
E 80 84 1
E 80 94 1
E 80 118 8
E 81 85 1
E 81 99 2
E 81 123 4
E 81 131 8
E 82 91 6
E 83 93 6
E 84 100 1
E 85 106 2
E 85 122 4
E 86 107 6
E 87 107 5
E 87 108 1
E 87 109 1
E 87 170 41
E 88 107 1
E 88 108 5
E 89 107 1
E 89 109 5
E 90 322 198
E 91 100 1
E 91 112 1
E 92 93 1
E 92 103 1
E 92 113 2
E 93 104 1
E 93 115 1
E 94 95 1
E 94 100 1
E 94 119 8
E 95 96 1
E 95 101 1
E 96 102 1
E 96 116 2
E 97 98 1
E 97 104 1
E 97 116 1
E 97 124 8
E 98 99 1
E 98 105 1
E 99 106 1
E 100 101 1
E 101 102 1
E 101 112 1
E 102 103 2
E 102 113 1
E 103 104 1
E 103 116 1
E 104 105 1
E 105 106 1
E 105 115 1
E 106 117 1
E 108 167 41
E 109 176 41
E 110 113 6
E 111 114 2
E 111 117 6
E 112 113 1
E 114 161 29
E 115 117 1
E 118 119 1
E 119 121 3
E 120 122 1
E 120 127 5
E 122 123 1
E 122 130 5
E 123 134 5
E 123 141 8
E 124 128 3
E 125 126 2
E 125 151 12
E 126 128 1
E 126 129 1
E 127 130 1
E 127 138 4
E 128 132 1
E 128 133 1
E 129 133 1
E 129 155 11
E 130 134 1
E 130 140 4
E 131 139 3
E 131 141 4
E 132 135 1
E 132 136 1
E 133 136 1
E 133 156 11
E 134 143 4
E 134 153 8
E 135 137 1
E 135 139 2
E 136 137 1
E 136 159 11
E 137 142 2
E 137 164 11
E 138 140 1
E 138 145 3
E 139 142 1
E 139 148 4
E 140 143 1
E 140 147 3
E 141 148 3
E 141 153 5
E 142 163 9
E 142 173 11
E 143 150 3
E 143 162 8
E 145 146 1
E 145 147 1
E 146 149 1
E 146 168 7
E 147 149 1
E 147 150 1
E 148 158 5
E 148 224 17
E 149 152 1
E 149 172 7
E 150 152 1
E 150 179 8
E 151 155 2
E 151 165 5
E 152 178 7
E 152 183 8
E 153 158 3
E 153 162 4
E 154 192 10
E 155 156 1
E 155 174 5
E 156 159 1
E 157 166 2
E 158 163 1
E 158 180 4
E 159 164 1
E 160 166 1
E 160 214 10
E 161 167 1
E 161 189 6
E 162 179 3
E 162 180 3
E 163 184 4
E 164 173 2
E 164 187 5
E 165 174 2
E 165 175 2
E 166 169 1
E 166 220 10
E 167 170 1
E 167 171 1
E 168 172 1
E 168 189 5
E 169 175 1
E 169 225 10
E 170 176 1
E 170 177 1
E 171 177 1
E 171 194 5
E 172 178 1
E 172 195 5
E 173 198 5
E 173 240 14
E 174 185 2
E 175 185 2
E 176 182 1
E 177 182 1
E 177 202 5
E 178 204 5
E 178 223 8
E 179 183 1
E 179 190 3
E 180 184 1
E 180 190 3
E 181 192 3
E 182 186 1
E 182 208 5
E 183 196 3
E 183 223 7
E 184 197 3
E 184 240 12
E 185 188 1
E 186 193 2
E 186 216 5
E 187 198 2
E 187 199 2
E 188 191 1
E 188 238 10
E 189 194 1
E 189 195 1
E 190 196 1
E 190 197 1
E 191 199 1
E 191 241 10
E 192 200 1
E 193 201 1
E 193 227 5
E 194 202 1
E 194 203 1
E 195 203 1
E 195 204 1
E 196 205 1
E 196 206 1
E 197 206 1
E 197 249 12
E 198 213 2
E 198 224 4
E 199 213 2
E 200 214 2
E 200 215 2
E 201 207 1
E 201 232 6
E 202 208 1
E 202 209 1
E 203 209 1
E 203 210 1
E 204 210 1
E 204 239 8
E 205 211 1
E 205 212 1
E 206 212 1
E 206 254 12
E 207 229 4
E 207 236 6
E 208 216 1
E 208 217 1
E 209 217 1
E 209 218 1
E 210 218 1
E 210 242 8
E 211 219 1
E 211 278 19
E 212 237 6
E 212 258 12
E 214 220 1
E 214 226 2
E 215 226 2
E 216 221 1
E 216 227 2
E 217 221 1
E 217 222 1
E 218 222 1
E 218 244 8
E 219 234 4
E 219 281 19
E 220 225 1
E 221 228 1
E 221 230 2
E 222 228 1
E 222 247 8
E 223 234 3
E 223 239 5
E 225 231 2
E 226 231 2
E 227 230 1
E 228 233 2
E 228 263 11
E 230 232 1
E 230 233 1
E 231 235 1
E 232 236 1
E 232 262 9
E 233 259 8
E 234 237 1
E 234 248 5
E 235 243 3
E 236 266 9
E 237 253 5
E 237 273 12
E 238 241 1
E 238 243 2
E 239 242 1
E 239 248 3
E 240 249 3
E 240 255 4
E 241 246 2
E 242 244 1
E 242 252 3
E 243 246 1
E 244 247 1
E 244 256 3
E 245 279 10
E 246 250 1
E 247 259 3
E 247 260 3
E 248 252 1
E 248 253 1
E 249 254 1
E 252 256 1
E 252 257 1
E 253 257 1
E 253 284 12
E 254 258 1
E 256 260 1
E 256 261 1
E 257 261 1
E 258 269 4
E 258 273 6
E 259 262 1
E 259 268 3
E 260 263 1
E 260 264 1
E 261 264 1
E 262 266 1
E 262 271 3
E 263 267 1
E 263 268 2
E 264 267 1
E 265 279 5
E 266 275 4
E 267 287 12
E 268 271 1
E 269 274 2
E 269 283 6
E 270 272 1
E 270 286 10
E 272 274 1
E 272 288 10
E 273 283 4
E 273 284 5
E 274 278 1
E 275 276 6
E 276 280 1
E 277 280 1
E 278 281 1
E 278 291 10
E 279 282 2
E 280 297 12
E 281 293 10
E 282 285 4
E 284 287 4
E 285 289 3
E 286 288 1
E 286 289 2
E 287 295 4
E 288 292 2
E 289 292 1
E 290 306 10
E 291 293 1
E 291 296 2
E 292 294 1
E 293 298 2
E 293 300 4
E 294 296 1
E 294 303 6
E 295 299 2
E 296 298 1
E 298 305 6
E 299 301 2
E 300 306 5
E 301 302 1
E 301 308 10
E 302 304 1
E 302 309 10
E 304 310 10
E 308 309 1
E 309 310 1
E 311 313 7
E 312 314 7
E 316 318 7
E 317 320 7
E 318 319 1
E 319 321 1
E 320 322 1
E 321 322 1
E 321 323 5
E 324 326 7
E 325 327 7
E 329 331 7
E 330 332 7
E 334 336 7
E 335 337 7
E 339 341 7
E 340 342 7
E 1 344 100000
E 2 344 100000
E 3 344 100000
E 4 344 100000
E 5 345 100000
E 6 345 100000
E 7 345 100000
E 8 345 100000
E 9 346 100000
E 10 346 100000
E 11 346 100000
E 12 346 100000
E 13 347 100000
E 14 347 100000
E 15 347 100000
E 16 347 100000
E 17 348 100000
E 18 348 100000
E 19 348 100000
E 20 348 100000
E 21 349 100000
E 22 349 100000
E 23 349 100000
E 24 349 100000
E 25 350 100000
E 26 350 100000
E 27 350 100000
E 28 350 100000
E 29 351 100000
E 30 351 100000
E 31 352 100000
E 32 352 100000
E 33 353 100000
E 34 353 100000
E 35 354 100000
E 36 354 100000
E 37 355 100000
E 38 355 100000
E 39 355 100000
E 40 356 100000
E 41 356 100000
E 42 356 100000
E 43 357 100000
E 44 357 100000
E 45 357 100000
E 46 358 100000
E 47 358 100000
E 48 358 100000
E 49 359 100000
E 50 359 100000
E 51 359 100000
E 52 360 100000
E 53 360 100000
E 54 360 100000
E 55 361 100000
E 56 361 100000
E 57 362 100000
E 58 362 100000
E 59 363 100000
E 60 363 100000
E 61 364 100000
E 62 364 100000
E 63 364 100000
E 64 364 100000
E 65 365 100000
E 66 365 100000
E 67 365 100000
E 68 365 100000
E 69 366 100000
E 70 366 100000
E 71 366 100000
E 72 366 100000
E 73 366 100000
E 74 366 100000
E 75 366 100000
E 76 366 100000
E 77 367 100000
E 78 367 100000
E 79 367 100000
E 80 367 100000
E 81 367 100000
E 82 368 100000
E 83 368 100000
E 84 368 100000
E 85 368 100000
E 86 369 100000
E 87 369 100000
E 88 369 100000
E 89 369 100000
E 90 370 100000
E 91 366 100000
E 92 366 100000
E 93 366 100000
E 94 367 100000
E 95 367 100000
E 96 367 100000
E 97 367 100000
E 98 367 100000
E 99 367 100000
E 100 368 100000
E 101 368 100000
E 102 368 100000
E 103 368 100000
E 104 368 100000
E 105 368 100000
E 106 368 100000
END

SECTION Terminals
Terminals 27
T 344
T 345
T 346
T 347
T 348
T 349
T 350
T 351
T 352
T 353
T 354
T 355
T 356
T 357
T 358
T 359
T 360
T 361
T 362
T 363
T 364
T 365
T 366
T 367
T 368
T 369
T 370
END

SECTION Tree Decomposition
c We do not guarantee that this tree decomposition has minimum width.
s td 313 20 370
b 1 370 90
b 2 90 322
b 3 362 58 57
b 4 363 59 60
b 5 352 32 31
b 6 353 34 33
b 7 354 35 36
b 8 351 30 29
b 9 2 343 344
b 10 361 56 55
b 11 86 107 369
b 12 68 251 365
b 13 30 298 300 29
b 14 355 38 39 37
b 15 356 40 41 42
b 16 357 43 45 44
b 17 358 48 47 46
b 18 359 49 50 51
b 19 35 181 36 154
b 20 181 36 154 192
b 21 36 154 192 34
b 22 154 192 34 33
b 23 192 34 33 200
b 24 34 33 200 215
b 25 33 200 215 160
b 26 200 215 214 160
b 27 215 214 226 160
b 28 214 226 220 160
b 29 226 220 160 231
b 30 108 88 87 167
b 31 88 107 369 87 167
b 32 107 369 89 87 167
b 33 89 87 109 167
b 34 87 109 170 167
b 35 109 170 176 167
b 36 170 176 177 167
b 37 176 177 167 182
b 38 336 7 5 334
b 39 332 12 9 330
b 40 331 11 9 329
b 41 341 3 1 339
b 42 3 343 344 1 339
b 43 343 344 4 1 339
b 44 4 1 342 339
b 45 1 342 339 6
b 46 342 339 340 6
b 47 339 340 6 7
b 48 340 6 7 8
b 49 6 338 345 7 8
b 50 338 345 7 8 5
b 51 7 8 5 334
b 52 8 5 337 334
b 53 5 337 334 10
b 54 337 334 335 10
b 55 334 335 10 11
b 56 335 10 11 12
b 57 10 333 346 11 12
b 58 333 346 11 12 9
b 59 11 12 9 329
b 60 12 9 329 330
b 61 9 329 330 14
b 62 329 330 14 15
b 63 330 14 15 16
b 64 14 328 347 15 16
b 65 328 347 15 16 13
b 66 15 16 326 13
b 67 16 326 13 327
b 68 326 13 327 324
b 69 13 327 324 18
b 70 327 324 325 18
b 71 324 325 18 19
b 72 325 18 19 20
b 73 18 348 323 19 20
b 74 322 20 321 320
b 75 120 127 122 76
b 76 129 133 155 126
b 77 118 80 61 119
b 78 111 70 117 114
b 79 317 320 22 24
b 80 138 127 140 145
b 81 144 52 63 61
b 82 146 168 149 145
b 83 313 23 21 311
b 84 312 314 26 28
b 85 171 177 167 194
b 86 309 310 302 308
b 87 161 167 189 114
b 88 186 193 182 216
b 89 185 175 174 188
b 90 110 69 113 78
b 91 201 207 232 193
b 92 205 196 211 212
b 93 213 198 199 31
b 94 319 19 321 318
b 95 227 193 216 230
b 96 360 54 52 53
b 97 229 65 67 207
b 98 65 251 365 67 207
b 99 251 365 66 67 207
b 100 66 67 207 275
b 101 67 207 236 275
b 102 243 235 238 246
b 103 233 259 230 228
b 104 250 32 51 246
b 105 257 261 252 253
b 106 264 261 260 267
b 107 304 310 302 38
b 108 219 281 211 234
b 109 276 275 55 280
b 110 292 289 288 294
b 111 297 39 56 280
b 112 303 27 25 294
b 113 306 290 300 42
b 114 285 282 48 289
b 115 305 28 25 298
b 116 316 318 22 23
b 117 77 82 75 367
b 118 348 323 19 20 17
b 119 323 19 20 321 17
b 120 19 20 321 17 318
b 121 20 321 17 318 320
b 122 17 318 320 22
b 123 318 320 22 23
b 124 320 22 23 24
b 125 22 315 349 23 24
b 126 315 349 23 24 21
b 127 23 24 21 311
b 128 24 21 314 311
b 129 21 314 311 26
b 130 314 311 26 28
b 131 311 26 27 28
b 132 26 307 350 27 28
b 133 307 350 27 28 25
b 134 27 28 25 294
b 135 28 25 298 294
b 136 25 296 298 294
b 137 296 298 291 294
b 138 207 236 232 275 193
b 139 236 232 266 275 193
b 140 220 160 231 225 166
b 141 177 167 194 202 182
b 142 160 231 225 166 52
b 143 231 225 166 235 52
b 144 310 302 38 39 308
b 145 364 64 63 61 62
b 146 168 149 172 189 145
b 147 282 32 279 48 289
b 148 302 38 39 308 301 37
b 149 38 39 308 301 37 56
b 150 39 308 301 37 56 280
b 151 225 166 169 54 235 52
b 152 166 169 54 157 235 52
b 153 308 301 37 56 280 42
b 154 84 75 100 80 368
b 155 232 266 275 193 230 262
b 156 266 275 193 230 55 262
b 157 275 193 230 55 262 280
b 158 167 194 202 182 189 114
b 159 194 202 182 189 203 114
b 160 290 300 29 40 41 42
b 161 169 54 157 235 52 53 175
b 162 54 157 235 52 53 175 238
b 163 157 235 52 53 175 63 238
b 164 235 52 53 175 63 238 246
b 165 52 53 175 63 238 61 246
b 166 197 190 206 249 184
b 167 58 37 56 60 57
b 168 195 172 189 203 204
b 169 248 252 253 239 234
b 170 283 29 269 40 273
b 171 278 274 291 281 211
b 172 237 253 212 234 273
b 173 209 202 217 218 203
b 174 272 274 44 270 288
b 175 295 299 287 40 41
b 176 244 256 242 218 247
b 177 83 78 93 70 368
b 178 112 91 69 101 113
b 179 115 93 70 105 117
b 180 116 96 103 97 79
b 181 208 202 217 182 216
b 182 178 223 152 172 204
b 183 180 190 162 158 184
b 184 121 63 61 62 119
b 185 123 122 134 141 81
b 186 124 97 79 73 128
b 187 125 72 62 126 151
b 188 240 249 255 184 173
b 189 293 298 300 291 281
b 190 298 300 29 291 281 294
b 191 130 127 122 134 140
b 192 127 122 134 140 145 76
b 193 132 135 73 128 136
b 194 131 141 139 74 81
b 195 137 135 142 136 164
b 196 286 48 289 270 288
b 197 143 134 140 150 162
b 198 165 53 175 174 151
b 199 147 149 140 145 150
b 200 148 141 139 158 224
b 201 153 134 141 162 158
b 202 156 133 155 159 49
b 203 163 142 46 158 184
b 204 221 217 216 230 228
b 205 179 190 183 150 162
b 206 187 198 199 50 164
b 207 191 241 199 50 188
b 208 277 56 57 55 280
b 209 210 242 218 203 204
b 210 271 57 55 262 268
b 211 222 217 228 218 247
b 212 254 258 44 206 249
b 213 59 60 57 267 268
b 214 263 260 228 267 268
b 215 284 287 253 40 273
b 216 245 279 47 46 31
b 217 265 32 279 31 51
b 218 261 260 256 252 267 253
b 219 64 53 63 61 62 151
b 220 149 152 172 189 140 145 150
b 221 193 182 216 230 55 262 280
b 222 301 37 56 299 280 41 42
b 223 37 56 299 60 57 280 41 42
b 224 56 299 60 57 55 280 41 42
b 225 241 199 50 188 238 51 246
b 226 196 190 183 206 211 212
b 227 94 100 80 95 367 119
b 228 98 105 367 99 97 73
b 229 102 101 113 96 103 368
b 230 104 103 93 368 105 97
b 231 106 368 105 117 99 85
b 232 82 75 91 69 368 367
b 233 75 91 69 100 80 368 367 366
b 234 91 69 100 80 101 113 368 367 366
b 235 69 100 80 101 113 78 368 367 366
b 236 133 155 159 49 126 128 136
b 237 32 279 48 289 31 51 246
b 238 279 48 47 289 46 31 51 246
b 239 258 44 269 206 212 273 249
b 240 155 159 49 174 126 128 136 151
b 241 299 60 57 287 55 280 40 41 42
b 242 71 95 366 72 62 119
b 243 43 45 44 249 255 270
b 244 92 113 78 103 93 366
b 245 259 230 228 247 262 268
b 246 198 199 50 31 164 173 224
b 247 223 152 172 204 239 183 234
b 248 202 217 182 216 218 189 203 114
b 249 300 29 291 281 40 41 42 294
b 250 48 47 289 270 288 46 31 51 246
b 251 47 289 255 270 288 46 31 51 246
b 252 289 255 270 288 294 46 31 51 246
b 253 100 80 101 113 78 95 368 367 366 119
b 254 80 101 113 78 95 368 367 366 61 119
b 255 101 113 78 95 96 103 368 367 366 61 119
b 256 113 78 95 96 103 93 368 367 366 61 119
b 257 78 95 96 103 93 70 368 367 366 61 119
b 258 122 134 141 140 145 76 81 85
b 259 260 256 252 228 247 267 268 253
b 260 256 252 242 228 218 247 267 268 253
b 261 29 291 269 281 40 41 42 273 294
b 262 53 175 63 174 238 61 62 151 246
b 263 175 63 174 188 238 61 62 151 246
b 264 63 174 188 238 61 62 119 151 246
b 265 159 49 50 174 126 128 136 151 164
b 266 60 57 287 55 267 268 280 40 41 42
b 267 57 287 55 262 267 268 280 40 41 42
b 268 49 50 174 188 51 126 128 136 151 164
b 269 287 55 262 267 268 280 253 40 41 42 273
b 270 252 242 228 218 247 267 268 253 239 234
b 271 135 142 139 73 74 128 136 164
b 272 242 228 218 247 267 268 253 203 204 239 234
b 273 95 96 103 93 70 368 367 366 72 61 62 119
b 274 217 182 216 230 228 218 247 189 203 114
b 275 96 103 93 70 368 367 366 97 79 72 61 62 119
b 276 103 93 70 368 105 367 366 97 79 72 61 62 119
b 277 93 70 368 105 117 367 366 97 79 72 61 62 119
b 278 70 368 105 117 367 366 97 79 72 61 62 114 119
b 279 45 274 44 291 249 255 270 288 294
b 280 134 141 140 145 150 162 158 76 81 85
b 281 152 172 189 204 239 183 234 140 145 150
b 282 172 189 203 204 239 183 234 140 145 150
b 283 199 50 188 238 31 51 164 173 224 246
b 284 274 44 291 269 281 211 249 255 270 288 294
b 285 182 216 230 228 218 247 55 262 280 189 203 114
b 286 230 228 218 247 55 262 268 280 189 203 114
b 287 44 291 269 281 206 211 212 273 249 255 270 288 294
b 288 368 105 117 367 99 366 97 79 72 61 62 85 114 119
b 289 105 117 367 99 366 97 79 72 61 62 73 85 114 119
b 290 117 367 99 366 97 79 72 61 62 73 76 85 114 119
b 291 367 99 366 97 79 72 61 62 73 76 81 85 114 119
b 292 99 366 97 79 72 61 62 73 74 76 81 85 114 119
b 293 97 79 72 61 62 73 74 76 81 85 114 119 128
b 294 79 72 61 62 73 74 76 81 85 114 119 126 128
b 295 72 61 62 73 74 76 81 85 114 119 126 128 151
b 296 228 218 247 55 262 267 268 280 253 189 203 204 239 234 114
b 297 190 183 206 211 212 249 150 162 158 184
b 298 141 140 145 150 162 139 158 74 76 81 85 224
b 299 50 174 188 238 31 51 126 128 136 151 164 173 224 246
b 300 174 188 238 31 51 61 62 119 126 128 136 151 164 173 224 246
b 301 291 269 281 40 41 42 206 211 212 273 249 255 270 288 294
b 302 281 40 41 42 206 211 212 234 273 249 255 270 288 294
b 303 55 262 267 268 280 253 189 203 204 239 40 41 42 234 273 114
b 304 253 189 203 204 239 40 41 42 212 234 273 114
b 305 189 203 204 239 183 40 41 42 212 234 273 140 145 150 114
b 306 142 46 139 158 184 73 74 128 136 164 173
b 307 183 40 41 42 206 211 212 234 273 249 140 145 150 162 158 184 114
b 308 40 41 42 206 211 212 234 273 249 255 270 288 294 140 145 150 162 158 184 114
b 309 249 255 270 288 294 140 145 150 162 158 184 114 173
b 310 255 270 288 294 140 145 150 162 46 158 184 31 51 114 173 246
b 311 140 145 150 162 46 139 158 184 31 51 74 76 81 85 114 173 224 246
b 312 46 139 158 184 31 51 73 74 76 81 85 114 128 136 164 173 224 246
b 313 31 51 61 62 73 74 76 81 85 114 119 126 128 136 151 164 173 224 246
1 2
2 74
74 121
121 120
120 119
119 118
118 73
73 72
120 94
72 71
71 70
70 69
121 122
69 68
122 123
68 67
123 116
123 124
67 66
124 79
124 125
125 126
66 65
65 64
126 127
64 63
127 83
127 128
63 62
128 129
62 61
129 130
61 60
130 84
130 131
60 39
60 59
131 132
132 133
59 40
133 134
59 58
58 57
57 56
134 112
134 135
135 115
135 136
136 137
137 190
190 249
249 261
261 301
301 302
302 308
308 307
301 287
308 309
309 310
310 311
311 312
312 313
313 300
300 299
313 295
295 294
294 293
293 292
292 291
291 290
290 289
289 288
288 278
278 277
277 276
276 275
275 273
307 305
305 304
304 303
303 296
311 298
273 257
303 269
296 286
296 272
257 256
286 285
256 255
287 284
312 306
305 282
269 267
272 270
285 274
255 254
298 280
282 281
267 266
307 297
254 253
299 283
299 268
270 260
266 241
253 235
268 265
235 234
310 252
252 251
251 250
300 264
264 263
263 262
284 279
306 271
274 248
280 258
260 259
241 224
265 240
234 233
250 238
224 223
285 221
281 220
281 247
283 225
283 246
287 239
262 165
240 236
238 237
223 222
165 164
164 163
163 162
162 161
279 243
289 228
288 231
276 230
249 160
273 242
286 245
256 244
255 229
297 226
253 227
262 219
248 159
258 192
259 218
233 232
221 157
222 153
161 152
159 158
157 156
153 150
152 151
156 155
150 149
149 148
293 186
190 189
223 167
277 179
261 170
275 180
304 172
298 200
298 194
257 177
269 215
272 209
284 171
284 174
306 203
282 168
267 210
270 169
274 204
274 211
280 197
280 201
266 213
297 166
297 183
297 205
260 176
241 175
234 178
250 196
264 184
309 188
262 198
271 193
271 195
248 173
248 181
258 185
259 214
224 208
233 154
238 216
220 146
220 199
247 182
225 207
246 206
239 212
236 202
237 147
237 217
219 145
192 191
158 141
151 143
155 139
148 144
143 142
139 138
142 140
295 187
161 96
190 13
138 101
138 91
249 15
278 78
302 108
238 17
254 77
268 18
235 90
252 110
263 89
221 88
221 95
246 93
165 81
236 76
237 104
164 102
243 16
160 113
245 103
226 92
192 75
192 80
218 105
218 106
232 117
56 55
158 87
150 111
149 14
141 85
144 107
144 86
55 54
54 53
53 52
52 51
51 38
51 50
50 49
49 48
48 47
47 46
46 45
45 44
44 43
43 42
42 41
146 82
157 109
147 114
101 100
100 99
99 98
141 37
98 97
37 36
36 35
35 34
34 33
33 32
32 31
31 30
140 29
29 28
28 27
27 26
26 25
25 24
24 23
23 22
22 21
21 20
20 19
19 7
22 6
42 9
31 11
98 12
13 8
208 10
237 5
167 3
213 4
END

EOF
